
Gurobi 11.0.1 (mac64[arm]) logging started Fri May  3 01:19:42 2024

Set parameter LogFile to value "../models/model_moo(May 03,0119).log"
Gurobi Optimizer version 11.0.1 build v11.0.1rc0 (mac64[arm] - Darwin 23.2.0 23C71)

CPU model: Apple M2
Thread count: 8 physical cores, 8 logical processors, using up to 8 threads

Optimize a model with 495 rows, 386 columns and 927 nonzeros
Model fingerprint: 0x1994b526
Variable types: 285 continuous, 101 integer (101 binary)
Coefficient statistics:
  Matrix range     [1e+00, 2e+25]
  Objective range  [2e-02, 2e+02]
  Bounds range     [1e+00, 1e+00]
  RHS range        [1e+00, 1e+12]
Warning: Model contains large matrix coefficient range
Warning: Model contains large rhs
         Consider reformulating model or setting NumericFocus parameter
         to avoid numerical issues.

---------------------------------------------------------------------------
Multi-objectives: starting optimization with 2 objectives ... 
---------------------------------------------------------------------------

Multi-objectives: applying initial presolve ...
---------------------------------------------------------------------------

Presolve removed 368 rows and 190 columns
Presolve time: 0.00s
Presolved: 127 rows, 196 columns, 339 nonzeros
---------------------------------------------------------------------------

Multi-objectives: optimize objective 1 (objective_re_1) ...
---------------------------------------------------------------------------

Found heuristic solution: objective 0.0000000
Presolve removed 99 rows and 175 columns
Presolve time: 0.00s
Presolved: 28 rows, 21 columns, 57 nonzeros
Found heuristic solution: objective -983.2834652
Variable types: 0 continuous, 21 integer (21 binary)

Root relaxation: cutoff, 0 iterations, 0.00 seconds (0.00 work units)

Explored 1 nodes (0 simplex iterations) in 0.01 seconds (0.00 work units)
Thread count was 8 (of 8 available processors)

Solution count 1: -983.283 
No other solutions better than -983.283

Optimal solution found (tolerance 1.00e-04)
Best objective -9.832834651899e+02, best bound -9.832834651899e+02, gap 0.0000%
---------------------------------------------------------------------------

Multi-objectives: optimize objective 2 (objective_cost_2) ...
---------------------------------------------------------------------------


Loaded user MIP start with objective 750

Presolve removed 128 rows and 196 columns
Presolve time: 0.00s
Presolve: All rows and columns removed

Explored 0 nodes (0 simplex iterations) in 0.01 seconds (0.00 work units)
Thread count was 1 (of 8 available processors)

Solution count 1: -3329.3 
No other solutions better than -3329.3

Optimal solution found (tolerance 1.00e-04)
Best objective -3.329298416667e+03, best bound -3.329298416667e+03, gap 0.0000%

---------------------------------------------------------------------------
Multi-objectives: solved in 0.01 seconds (0.00 work units), solution count 2


    Variable            X 
-------------------------
cover[o136,s11]            1 
cover[o158,s5]            1 
cover[o86,s19]            1 
cover[o53,s11]            1 
cover[o4,s19]            1 
cover[o157,s5]            1 
cover[o11,s12]            1 
cover[o66,s11]            1 
cover[o198,s1]            1 
cover[o194,s1]            1 
cover[o24,s1]            1 
cover[o85,s19]            1 
cover[o215,s5]            1 
cover[o164,s5]            1 
cover[o124,s12]            1 
cover[o29,s1]            1 
cover[o76,s11]            1 
cover[o139,s12]            1 
cover[o54,s11]            1 
cover[o81,s19]            1 
cover[o91,s19]            1 
cover[o15,s19]            1 
cover[o214,s5]            1 
cover[o160,s5]            1 
cover[o190,s11]            1 
cover[o78,s19]            1 
cover[o84,s19]            1 
cover[o28,s1]            1 
cover[o186,s1]            1 
cover[o146,s5]            1 
cover[o65,s11]            1 
cover[o112,s12]            1 
cover[o52,s12]            1 
cover[o207,s5]            1 
cover[o104,s12]            1 
cover[o71,s11]            1 
cover[o26,s1]            1 
cover[o220,s1]            1 
cover[o64,s11]            1 
cover[o203,s19]            1 
cover[o154,s5]            1 
cover[o96,s12]            1 
cover[o17,s12]            1 
cover[o205,s5]            1 
cover[o74,s19]            1 
cover[o9,s12]            1 
cover[o16,s19]            1 
cover[o219,s1]            1 
cover[o153,s5]            1 
cover[o116,s12]            1 
cover[o95,s19]            1 
cover[o20,s5]            1 
cover[o90,s19]            1 
cover[o155,s5]            1 
cover[o115,s12]            1 
cover[o185,s1]            1 
cover[o181,s1]            1 
cover[o14,s11]            1 
cover[o212,s5]            1 
cover[o140,s11]            1 
cover[o193,s5]            1 
cover[o161,s5]            1 
cover[o202,s19]            1 
cover[o134,s11]            1 
cover[o133,s12]            1 
cover[o187,s1]            1 
cover[o182,s1]            1 
cover[o102,s12]            1 
cover[o80,s19]            1 
cover[o77,s11]            1 
cover[o217,s5]            1 
cover[o192,s1]            1 
cover[o223,s1]            1 
cover[o149,s5]            1 
cover[o44,s19]            1 
cover[o5,s19]            1 
cover[o27,s1]            1 
cover[o119,s12]            1 
  select[s1]            1 
 select[s12]            1 
 select[s11]            1 
 select[s19]            1 
  select[s5]            1 
deploy[o136,s11,c]          110 
deploy[o136,s12,c]          110 
deploy[o158,s5,c]          110 
deploy[o86,s19,c]            5 
deploy[o53,s11,m]            2 
deploy[o4,s19,m]            2 
deploy[o157,s5,i]           37 
deploy[o11,s12,i]          157 
deploy[o66,s11,m]          100 
deploy[o198,s1,m]           20 
deploy[o194,s1,m]           20 
deploy[o24,s1,m]            2 
deploy[o85,s19,c]            5 
deploy[o215,s5,i]          157 
deploy[o124,s12,c]           31 
deploy[o29,s1,i]            7 
deploy[o76,s11,c]          110 
deploy[o139,s11,m]          100 
deploy[o139,s12,m]          100 
deploy[o54,s11,i]           37 
deploy[o15,s19,m]           20 
deploy[o214,s5,i]            7 
deploy[o160,s5,i]           37 
deploy[o190,s11,c]            5 
deploy[o84,s19,m]            2 
deploy[o28,s1,m]            2 
deploy[o186,s1,i]          157 
deploy[o65,s11,m]           20 
deploy[o112,s12,c]           31 
deploy[o52,s11,m]           20 
deploy[o52,s12,m]           20 
deploy[o207,s5,c]            5 
deploy[o104,s12,m]            2 
deploy[o71,s11,c]           31 
deploy[o26,s1,m]           20 
deploy[o220,s1,i]            7 
deploy[o64,s11,m]           20 
deploy[o154,s5,i]            7 
deploy[o96,s12,i]           37 
deploy[o17,s12,i]            7 
deploy[o205,s5,c]           31 
deploy[o74,s19,m]          100 
deploy[o9,s12,i]            7 
deploy[o16,s19,c]          110 
deploy[o219,s1,c]            5 
deploy[o116,s12,i]           37 
deploy[o95,s19,c]            5 
deploy[o20,s5,i]          157 
deploy[o90,s19,c]          110 
deploy[o115,s12,c]            5 
deploy[o185,s1,m]           20 
deploy[o181,s1,c]           31 
deploy[o14,s11,c]            5 
deploy[o212,s5,i]          157 
deploy[o140,s11,m]            2 
deploy[o193,s5,c]            5 
deploy[o134,s11,c]          110 
deploy[o134,s12,c]          110 
deploy[o133,s11,i]            7 
deploy[o133,s12,i]            7 
deploy[o187,s1,c]           31 
deploy[o182,s1,c]            5 
deploy[o102,s12,m]            2 
deploy[o77,s11,i]           37 
deploy[o217,s5,c]            5 
deploy[o192,s1,c]          110 
deploy[o223,s1,m]          100 
deploy[o44,s19,c]           31 
deploy[o5,s19,m]            2 
deploy[o27,s1,c]            5 
deploy[o119,s12,c]           31 

Gurobi 11.0.1 (mac64[arm]) logging started Fri May  3 01:19:48 2024

Set parameter LogFile to value "../models/model_moo(May 03,0119).log"
Gurobi Optimizer version 11.0.1 build v11.0.1rc0 (mac64[arm] - Darwin 23.2.0 23C71)

CPU model: Apple M2
Thread count: 8 physical cores, 8 logical processors, using up to 8 threads

Optimize a model with 495 rows, 386 columns and 929 nonzeros
Model fingerprint: 0x9e1ece38
Variable types: 285 continuous, 101 integer (101 binary)
Coefficient statistics:
  Matrix range     [1e+00, 2e+25]
  Objective range  [7e-04, 2e+02]
  Bounds range     [1e+00, 1e+00]
  RHS range        [1e+00, 1e+12]
Warning: Model contains large matrix coefficient range
Warning: Model contains large rhs
         Consider reformulating model or setting NumericFocus parameter
         to avoid numerical issues.

---------------------------------------------------------------------------
Multi-objectives: starting optimization with 2 objectives ... 
---------------------------------------------------------------------------

Multi-objectives: applying initial presolve ...
---------------------------------------------------------------------------

Presolve removed 367 rows and 190 columns
Presolve time: 0.00s
Presolved: 128 rows, 196 columns, 341 nonzeros
---------------------------------------------------------------------------

Multi-objectives: optimize objective 1 (objective_re_1) ...
---------------------------------------------------------------------------

Found heuristic solution: objective 0.0000000
Presolve removed 97 rows and 173 columns
Presolve time: 0.00s
Presolved: 31 rows, 23 columns, 63 nonzeros
Found heuristic solution: objective -861.4441690
Variable types: 0 continuous, 23 integer (23 binary)

Root relaxation: cutoff, 0 iterations, 0.00 seconds (0.00 work units)

Explored 1 nodes (0 simplex iterations) in 0.01 seconds (0.00 work units)
Thread count was 8 (of 8 available processors)

Solution count 1: -861.444 
No other solutions better than -861.444

Optimal solution found (tolerance 1.00e-04)
Best objective -8.614441689857e+02, best bound -8.614441689857e+02, gap 0.0000%
---------------------------------------------------------------------------

Multi-objectives: optimize objective 2 (objective_cost_2) ...
---------------------------------------------------------------------------


Loaded user MIP start with objective 750

Presolve removed 129 rows and 196 columns
Presolve time: 0.00s
Presolve: All rows and columns removed

Explored 0 nodes (0 simplex iterations) in 0.01 seconds (0.00 work units)
Thread count was 1 (of 8 available processors)

Solution count 1: -3554.28 
No other solutions better than -3554.28

Optimal solution found (tolerance 1.00e-04)
Best objective -3.554280277778e+03, best bound -3.554280277778e+03, gap 0.0000%

---------------------------------------------------------------------------
Multi-objectives: solved in 0.01 seconds (0.00 work units), solution count 2


    Variable            X 
-------------------------
cover[o79,s19]            1 
cover[o207,s5]            1 
cover[o163,s5]            1 
cover[o47,s12]            1 
cover[o52,s12]            1 
cover[o154,s5]            1 
cover[o112,s12]            1 
cover[o101,s12]            1 
cover[o161,s5]            1 
cover[o211,s5]            1 
cover[o119,s12]            1 
cover[o181,s1]            1 
cover[o1,s11]            1 
cover[o24,s1]            1 
cover[o59,s11]            1 
cover[o3,s11]            1 
cover[o76,s11]            1 
cover[o58,s11]            1 
cover[o146,s5]            1 
cover[o85,s19]            1 
cover[o164,s5]            1 
cover[o196,s1]            1 
cover[o11,s12]            1 
cover[o169,s1]            1 
cover[o26,s1]            1 
cover[o151,s5]            1 
cover[o8,s12]            1 
cover[o54,s11]            1 
cover[o203,s19]            1 
cover[o185,s1]            1 
cover[o113,s12]            1 
cover[o204,s5]            1 
cover[o184,s1]            1 
cover[o107,s12]            1 
cover[o158,s5]            1 
cover[o14,s11]            1 
cover[o128,s12]            1 
cover[o139,s11]            1 
cover[o81,s19]            1 
cover[o197,s1]            1 
cover[o90,s19]            1 
cover[o138,s11]            1 
cover[o219,s1]            1 
cover[o20,s5]            1 
cover[o114,s12]            1 
cover[o16,s19]            1 
cover[o167,s1]            1 
cover[o182,s1]            1 
cover[o121,s12]            1 
cover[o5,s19]            1 
cover[o9,s12]            1 
cover[o23,s1]            1 
cover[o205,s5]            1 
cover[o92,s19]            1 
cover[o188,s19]            1 
cover[o193,s5]            1 
cover[o4,s19]            1 
cover[o67,s11]            1 
cover[o149,s5]            1 
cover[o132,s11]            1 
cover[o17,s12]            1 
cover[o213,s5]            1 
cover[o206,s5]            1 
cover[o21,s5]            1 
cover[o134,s11]            1 
cover[o157,s5]            1 
cover[o75,s19]            1 
cover[o48,s12]            1 
cover[o133,s11]            1 
cover[o187,s1]            1 
cover[o30,s1]            1 
cover[o186,s1]            1 
cover[o64,s11]            1 
cover[o153,s5]            1 
  select[s1]            1 
 select[s12]            1 
 select[s11]            1 
 select[s19]            1 
  select[s5]            1 
deploy[o79,s19,c]           31 
deploy[o207,s5,c]          110 
deploy[o163,s5,c]          110 
deploy[o47,s12,c]            5 
deploy[o52,s11,m]            2 
deploy[o52,s12,m]            2 
deploy[o112,s12,i]           37 
deploy[o101,s12,m]           20 
deploy[o161,s5,i]          157 
deploy[o119,s12,m]           20 
deploy[o181,s1,m]           20 
deploy[o1,s11,m]            2 
deploy[o24,s1,m]          100 
deploy[o59,s11,c]            5 
deploy[o3,s11,c]          110 
deploy[o76,s11,i]          157 
deploy[o58,s11,m]            2 
deploy[o146,s5,c]           31 
deploy[o210,s5,c]          110 
deploy[o196,s1,m]          100 
deploy[o11,s12,i]          157 
deploy[o169,s1,i]          157 
deploy[o26,s1,m]           20 
deploy[o151,s5,c]            5 
deploy[o8,s12,i]            7 
deploy[o54,s11,m]           20 
deploy[o203,s19,m]           20 
deploy[o185,s1,m]           20 
deploy[o113,s12,c]           31 
deploy[o204,s5,c]            5 
deploy[o184,s1,m]           20 
deploy[o218,s5,c]           31 
deploy[o107,s12,m]           20 
deploy[o158,s5,i]            7 
deploy[o14,s11,m]           20 
deploy[o128,s12,i]           37 
deploy[o216,s5,i]            7 
deploy[o139,s11,i]           37 
deploy[o139,s12,i]           37 
deploy[o197,s1,i]            7 
deploy[o90,s19,c]           31 
deploy[o138,s11,i]            7 
deploy[o219,s1,c]          110 
deploy[o20,s5,c]            5 
deploy[o114,s12,i]           37 
deploy[o16,s19,c]            5 
deploy[o167,s1,c]          110 
deploy[o182,s1,m]           20 
deploy[o121,s12,c]            5 
deploy[o5,s19,m]           20 
deploy[o9,s12,c]           31 
deploy[o23,s1,c]            5 
deploy[o205,s5,i]          157 
deploy[o92,s19,c]            5 
deploy[o188,s19,m]           20 
deploy[o4,s19,c]          110 
deploy[o67,s11,i]            7 
deploy[o149,s5,c]           31 
deploy[o132,s11,m]           20 
deploy[o132,s12,m]           20 
deploy[o17,s12,c]            5 
deploy[o206,s5,c]          110 
deploy[o21,s5,i]            7 
deploy[o134,s11,i]           37 
deploy[o134,s12,i]           37 
deploy[o75,s19,c]            5 
deploy[o48,s12,c]          110 
deploy[o133,s11,i]           37 
deploy[o133,s12,i]           37 
deploy[o187,s1,m]          100 
deploy[o30,s1,i]          157 
deploy[o186,s1,c]            5 
deploy[o64,s11,i]          157 
deploy[o153,s5,c]           31 

Gurobi 11.0.1 (mac64[arm]) logging started Fri May  3 01:19:56 2024

Set parameter LogFile to value "../models/model_moo(May 03,0119).log"
Gurobi Optimizer version 11.0.1 build v11.0.1rc0 (mac64[arm] - Darwin 23.2.0 23C71)

CPU model: Apple M2
Thread count: 8 physical cores, 8 logical processors, using up to 8 threads

Optimize a model with 550 rows, 430 columns and 1042 nonzeros
Model fingerprint: 0xd2792304
Variable types: 318 continuous, 112 integer (112 binary)
Coefficient statistics:
  Matrix range     [1e+00, 2e+25]
  Objective range  [1e-02, 2e+02]
  Bounds range     [1e+00, 1e+00]
  RHS range        [1e+00, 1e+12]
Warning: Model contains large matrix coefficient range
Warning: Model contains large rhs
         Consider reformulating model or setting NumericFocus parameter
         to avoid numerical issues.

---------------------------------------------------------------------------
Multi-objectives: starting optimization with 2 objectives ... 
---------------------------------------------------------------------------

Multi-objectives: applying initial presolve ...
---------------------------------------------------------------------------

Presolve removed 408 rows and 212 columns
Presolve time: 0.00s
Presolved: 142 rows, 218 columns, 382 nonzeros
---------------------------------------------------------------------------

Multi-objectives: optimize objective 1 (objective_re_1) ...
---------------------------------------------------------------------------

Found heuristic solution: objective 0.0000000
Presolve removed 105 rows and 191 columns
Presolve time: 0.00s
Presolved: 37 rows, 27 columns, 75 nonzeros
Found heuristic solution: objective -1058.611686
Variable types: 0 continuous, 27 integer (27 binary)

Root relaxation: cutoff, 0 iterations, 0.00 seconds (0.00 work units)

Explored 1 nodes (0 simplex iterations) in 0.01 seconds (0.00 work units)
Thread count was 8 (of 8 available processors)

Solution count 1: -1058.61 
No other solutions better than -1058.61

Optimal solution found (tolerance 1.00e-04)
Best objective -1.058611685976e+03, best bound -1.058611685976e+03, gap 0.0000%
---------------------------------------------------------------------------

Multi-objectives: optimize objective 2 (objective_cost_2) ...
---------------------------------------------------------------------------


Loaded user MIP start with objective 750

Presolve removed 143 rows and 218 columns
Presolve time: 0.00s
Presolve: All rows and columns removed

Explored 0 nodes (0 simplex iterations) in 0.01 seconds (0.00 work units)
Thread count was 1 (of 8 available processors)

Solution count 1: -3758.65 
No other solutions better than -3758.65

Optimal solution found (tolerance 1.00e-04)
Best objective -3.758651000000e+03, best bound -3.758651000000e+03, gap 0.0000%

---------------------------------------------------------------------------
Multi-objectives: solved in 0.01 seconds (0.00 work units), solution count 2


    Variable            X 
-------------------------
cover[o158,s5]            1 
cover[o186,s1]            1 
cover[o104,s12]            1 
cover[o135,s11]            1 
cover[o22,s1]            1 
cover[o70,s11]            1 
cover[o193,s5]            1 
cover[o59,s11]            1 
cover[o188,s19]            1 
cover[o102,s12]            1 
cover[o17,s12]            1 
cover[o156,s5]            1 
cover[o79,s19]            1 
cover[o128,s12]            1 
cover[o74,s19]            1 
cover[o159,s5]            1 
cover[o37,s1]            1 
cover[o51,s12]            1 
cover[o81,s19]            1 
cover[o125,s12]            1 
cover[o29,s1]            1 
cover[o221,s1]            1 
cover[o75,s19]            1 
cover[o215,s5]            1 
cover[o88,s19]            1 
cover[o187,s1]            1 
cover[o84,s19]            1 
cover[o205,s5]            1 
cover[o20,s5]            1 
cover[o44,s19]            1 
cover[o191,s11]            1 
cover[o108,s12]            1 
cover[o107,s12]            1 
cover[o5,s19]            1 
cover[o58,s11]            1 
cover[o4,s19]            1 
cover[o148,s5]            1 
cover[o208,s5]            1 
cover[o163,s5]            1 
cover[o2,s11]            1 
cover[o77,s11]            1 
cover[o10,s19]            1 
cover[o101,s12]            1 
cover[o140,s11]            1 
cover[o213,s5]            1 
cover[o220,s1]            1 
cover[o134,s11]            1 
cover[o119,s12]            1 
cover[o139,s11]            1 
cover[o89,s19]            1 
cover[o83,s19]            1 
cover[o73,s19]            1 
cover[o47,s12]            1 
cover[o164,s5]            1 
cover[o28,s1]            1 
cover[o180,s1]            1 
cover[o136,s11]            1 
cover[o196,s1]            1 
cover[o23,s1]            1 
cover[o141,s11]            1 
cover[o53,s11]            1 
cover[o131,s11]            1 
cover[o90,s19]            1 
cover[o126,s12]            1 
cover[o62,s11]            1 
cover[o161,s5]            1 
cover[o93,s19]            1 
cover[o69,s11]            1 
cover[o105,s12]            1 
cover[o55,s11]            1 
cover[o82,s19]            1 
cover[o146,s5]            1 
cover[o113,s12]            1 
cover[o85,s19]            1 
cover[o151,s5]            1 
cover[o130,s12]            1 
cover[o87,s19]            1 
cover[o121,s12]            1 
cover[o66,s11]            1 
cover[o27,s1]            1 
cover[o124,s12]            1 
cover[o138,s11]            1 
  select[s1]            1 
 select[s12]            1 
 select[s11]            1 
 select[s19]            1 
  select[s5]            1 
deploy[o186,s1,c]           31 
deploy[o104,s12,c]          110 
deploy[o135,s11,c]          110 
deploy[o135,s12,c]          110 
deploy[o22,s1,m]            2 
deploy[o70,s11,i]          157 
deploy[o59,s11,m]           20 
deploy[o188,s19,m]            2 
deploy[o102,s12,c]            5 
deploy[o17,s12,c]          110 
deploy[o156,s5,i]          157 
deploy[o79,s19,m]            2 
deploy[o128,s12,c]           31 
deploy[o74,s19,m]          100 
deploy[o159,s5,c]          110 
deploy[o37,s1,m]          100 
deploy[o51,s12,c]          110 
deploy[o125,s12,m]           20 
deploy[o29,s1,i]            7 
deploy[o221,s1,i]           37 
deploy[o75,s19,c]            5 
deploy[o215,s5,i]            7 
deploy[o88,s19,m]            2 
deploy[o187,s1,m]            2 
deploy[o84,s19,m]           20 
deploy[o44,s19,c]           31 
deploy[o191,s11,c]            5 
deploy[o108,s12,m]           20 
deploy[o107,s12,m]            2 
deploy[o5,s19,c]           31 
deploy[o58,s11,m]           20 
deploy[o208,s5,i]           37 
deploy[o163,s5,i]            7 
deploy[o218,s5,i]           37 
deploy[o2,s11,i]            7 
deploy[o77,s11,i]            7 
deploy[o10,s19,m]          100 
deploy[o101,s12,i]            7 
deploy[o140,s11,c]            5 
deploy[o213,s5,c]          110 
deploy[o220,s1,c]            5 
deploy[o134,s11,m]          100 
deploy[o134,s12,m]          100 
deploy[o119,s12,i]           37 
deploy[o139,s11,c]            5 
deploy[o139,s12,c]            5 
deploy[o83,s19,c]          110 
deploy[o73,s19,m]           20 
deploy[o47,s12,c]            5 
deploy[o28,s1,c]           31 
deploy[o180,s1,c]            5 
deploy[o136,s11,c]            5 
deploy[o136,s12,c]            5 
deploy[o196,s1,i]          157 
deploy[o23,s1,m]            2 
deploy[o141,s11,c]            5 
deploy[o53,s11,m]           20 
deploy[o131,s11,m]          100 
deploy[o131,s12,m]          100 
deploy[o90,s19,c]          110 
deploy[o126,s12,i]            7 
deploy[o62,s11,c]           31 
deploy[o161,s5,c]            5 
deploy[o93,s19,m]            2 
deploy[o69,s11,c]          110 
deploy[o105,s12,i]            7 
deploy[o55,s11,i]           37 
deploy[o82,s19,m]            2 
deploy[o146,s5,c]            5 
deploy[o113,s12,c]          110 
deploy[o130,s11,m]          100 
deploy[o130,s12,m]          100 
deploy[o87,s19,c]           31 
deploy[o121,s12,m]            2 
deploy[o66,s11,i]          157 
deploy[o27,s1,c]            5 
deploy[o124,s12,i]          157 
deploy[o138,s11,c]           31 
